(declare-fun temp190_1 () (_ BitVec 64))
(declare-fun var331528 () (_ BitVec 64))
(declare-fun temp190_2 () (_ BitVec 64))
(declare-fun var462600 () (_ BitVec 64))
(declare-fun temp190_3 () (_ BitVec 64))
(declare-fun var2432152 () (_ BitVec 64))
(declare-fun ARGNAME_input_NAMEEND_DIM () (_ BitVec 64))
(declare-fun temp190_4 () (_ BitVec 64))
(declare-fun var2432153 () (_ BitVec 64))
(declare-fun temp190_5 () (_ BitVec 64))
(declare-fun var2432160 () (_ BitVec 64))
(declare-fun var2432194 () (_ BitVec 64))
(declare-fun temp190_6 () (_ BitVec 64))
(declare-fun var3018504 () (_ BitVec 64))
(declare-fun var3018506 () (_ BitVec 64))
(declare-fun var3084242 () (_ BitVec 64))
(declare-fun temp190_8 () (_ BitVec 64))
(declare-fun temp190_7 () (_ BitVec 64))
(declare-fun temp190_9 () (_ BitVec 64))
(declare-fun var5773748 () (_ BitVec 64))
(declare-fun var5839295 () (_ BitVec 64))
(declare-fun temp190_10 () (_ BitVec 64))
(declare-fun var6883126 () (_ BitVec 64))
(declare-fun var7082204 () (_ BitVec 64))
(declare-fun temp190_12 () (_ BitVec 64))
(declare-fun temp190_11 () (_ BitVec 64))
(declare-fun temp190_13 () (_ BitVec 64))
(declare-fun var8198177 () (_ BitVec 64))
(declare-fun temp190_14 () (_ BitVec 64))
(declare-fun var8456171 () (_ BitVec 64))
(declare-fun temp190_16 () (_ BitVec 64))
(declare-fun temp190_15 () (_ BitVec 64))
(declare-fun var8522615 () (_ BitVec 64))
(declare-fun temp190_17 () (_ BitVec 64))
(declare-fun var8589064 () (_ BitVec 64))
(declare-fun var8654609 () (_ BitVec 64))
(declare-fun temp190_19 () (_ BitVec 64))
(declare-fun temp190_18 () (_ BitVec 64))
(declare-fun temp190_20 () (_ BitVec 64))
(declare-fun var8851191 () (_ BitVec 64))
(declare-fun temp190_21 () (_ BitVec 64))
(declare-fun var8456232 () (_ BitVec 64))
(declare-fun temp190_22 () (_ BitVec 64))
(declare-fun var8456274 () (_ BitVec 64))
(declare-fun temp190_24 () (_ BitVec 64))
(declare-fun temp190_23 () (_ BitVec 64))
(declare-fun temp190_25 () (_ BitVec 64))
(declare-fun var9440248 () (_ BitVec 64))
(declare-fun temp190_26 () (_ BitVec 64))
(declare-fun var9440286 () (_ BitVec 64))
(declare-fun temp190_27 () (_ BitVec 64))
(declare-fun var8456219 () (_ BitVec 64))
(declare-fun var8456218 () (_ BitVec 64))
(declare-fun temp190_28 () (_ BitVec 64))
(declare-fun var8456223 () (_ BitVec 64))
(declare-fun temp190_29 () (_ BitVec 64))
(declare-fun var8456225 () (_ BitVec 64))
(declare-fun temp190_30 () (_ BitVec 64))
(declare-fun temp190_31 () (_ BitVec 64))
(declare-fun var10620058 () (_ BitVec 64))
(declare-fun var11012302 () (_ BitVec 64))
(declare-fun temp190_32 () (_ BitVec 64))
(declare-fun temp190_33 () (_ BitVec 64))
(declare-fun var11012332 () (_ BitVec 64))
(declare-fun var11012379 () (_ BitVec 64))
(declare-fun var11012300 () (_ BitVec 64))
(declare-fun var8198234 () (_ BitVec 64))
(declare-fun var8198235 () (_ BitVec 64))
(declare-fun temp190_34 () (_ BitVec 64))
(declare-fun var11145861 () (_ BitVec 64))
(declare-fun var11145865 () (_ BitVec 64))
(declare-fun var11145866 () (_ BitVec 64))
(assert (= temp190_1 #x0000000000000005))
(assert (= var331528 temp190_1))
(assert (= temp190_2 #x0000000000000005))
(assert (= var462600 temp190_2))
(assert (= temp190_3 #x0000000000000001))
(assert (= var2432152
   (ite (bvsgt ARGNAME_input_NAMEEND_DIM temp190_3)
        #x0000000000000001
        #x0000000000000000)))
(assert (= temp190_4 #x0000000000000001))
(assert (= var2432153
   (ite (= var2432152 #x0000000000000001) ARGNAME_input_NAMEEND_DIM temp190_4)))
(assert (= temp190_5 #xffffffffffffffff))
(assert (= var2432160 (bvadd var2432153 temp190_5)))
(assert (= var2432194 var2432160))
(assert (= temp190_6 #x0000000000000005))
(assert (= var3018504 temp190_6))
(assert (= var3018506 var3018504))
(assert (= var3084242 var3018506))
(assert (= temp190_8 #x0000000000000000))
(assert (= temp190_7 temp190_8))
(assert (= temp190_9 #x0000000000000000))
(assert (= var5773748 temp190_9))
(assert (= var5839295 var5773748))
(assert (= temp190_10 #x0000000000000001))
(assert (= var6883126 temp190_10))
(assert (= var7082204 var6883126))
(assert (= temp190_12 #x0000000000000000))
(assert (= temp190_11 temp190_12))
(assert (= temp190_13 #x0000000000000001))
(assert (= var8198177 temp190_13))
(assert (= temp190_14 #x0000000000000001))
(assert (= var8456171 (bvshl ARGNAME_input_NAMEEND_DIM temp190_14)))
(assert (= temp190_16 #x0000000000000000))
(assert (= temp190_15 temp190_16))
(assert (= var8522615 var8456171))
(assert (= temp190_17 #x0000000000000005))
(assert (= var8589064 temp190_17))
(assert (= var8654609 var8522615))
(assert (= temp190_19 #x0000000000000000))
(assert (= temp190_18 temp190_19))
(assert (= temp190_20 #x0000000000000000))
(assert (= var8851191 temp190_20))
(assert (= temp190_21 #x0000000000000000))
(assert (= var8456232 temp190_21))
(assert (= temp190_22 #x0000000000000001))
(assert (= var8456274 temp190_22))
(assert (= temp190_24 #x0000000000000000))
(assert (= temp190_23 temp190_24))
(assert (= temp190_25 #x0000000000000001))
(assert (= var9440248 temp190_25))
(assert (= temp190_26 #x0000000000000000))
(assert (= var9440286 temp190_26))
(assert (= temp190_27 #x0000000000000000))
(assert (= var9440286 temp190_27))
(assert (= var8456219 var8456274))
(assert (= var8456218 var8456219))
(assert (= temp190_28 #x0000000000000001))
(assert (= var8456223 (bvand var8456218 temp190_28)))
(assert (= temp190_29 #x0000000000000000))
(assert (= var8456225
   (ite (= var8456223 temp190_29) #x0000000000000001 #x0000000000000000)))
(assert (= temp190_30 #x0000000000000000))
(assert (= var8456225 temp190_30))
(assert (= temp190_31 #x0000000000000000))
(assert (= var10620058 temp190_31))
(assert (= var11012302 var8198177))
(assert (= temp190_32 #x0000000000000000))
(assert (= temp190_33 #x0000000000000002))
(assert (= var11012332 (ite (= var11012302 #x0000000000000001) temp190_32 temp190_33)))
(assert (= var11012379 var11012332))
(assert (= var11012300 var11012379))
(assert (= var8198234 var11012300))
(assert (= var8198235 var8198234))
(assert (= temp190_34 #x0000000000000004))
(assert (= var11145861 temp190_34))
(assert (= var11145865 var8198235))
(assert (= var11145866 var8198177))
(model-add temp190_1 () (_ BitVec 64) #x0000000000000005)
(model-add var331528 () (_ BitVec 64) #x0000000000000005)
(model-add temp190_2 () (_ BitVec 64) #x0000000000000005)
(model-add var462600 () (_ BitVec 64) #x0000000000000005)
(model-add temp190_3 () (_ BitVec 64) #x0000000000000001)
(model-add var2432152
           ()
           (_ BitVec 64)
           (ite (bvsle ARGNAME_input_NAMEEND_DIM #x0000000000000001)
                #x0000000000000000
                #x0000000000000001))
(model-add temp190_4 () (_ BitVec 64) #x0000000000000001)
(model-add var2432153
           ()
           (_ BitVec 64)
           (ite (= (ite (bvsle ARGNAME_input_NAMEEND_DIM #x0000000000000001)
                        #x0000000000000000
                        #x0000000000000001)
                   #x0000000000000001)
                ARGNAME_input_NAMEEND_DIM
                #x0000000000000001))
(model-add temp190_5 () (_ BitVec 64) #xffffffffffffffff)
(model-add var2432160
           ()
           (_ BitVec 64)
           (let ((a!1 (ite (= (ite (bvsle ARGNAME_input_NAMEEND_DIM
                                          #x0000000000000001)
                                   #x0000000000000000
                                   #x0000000000000001)
                              #x0000000000000001)
                           ARGNAME_input_NAMEEND_DIM
                           #x0000000000000001)))
             (bvadd #xffffffffffffffff a!1)))
(model-add var2432194
           ()
           (_ BitVec 64)
           (let ((a!1 (ite (= (ite (bvsle ARGNAME_input_NAMEEND_DIM
                                          #x0000000000000001)
                                   #x0000000000000000
                                   #x0000000000000001)
                              #x0000000000000001)
                           ARGNAME_input_NAMEEND_DIM
                           #x0000000000000001)))
             (bvadd #xffffffffffffffff a!1)))
(model-add temp190_6 () (_ BitVec 64) #x0000000000000005)
(model-add var3018504 () (_ BitVec 64) #x0000000000000005)
(model-add var3018506 () (_ BitVec 64) #x0000000000000005)
(model-add var3084242 () (_ BitVec 64) #x0000000000000005)
(model-add temp190_8 () (_ BitVec 64) #x0000000000000000)
(model-add temp190_7 () (_ BitVec 64) #x0000000000000000)
(model-add temp190_9 () (_ BitVec 64) #x0000000000000000)
(model-add var5773748 () (_ BitVec 64) #x0000000000000000)
(model-add var5839295 () (_ BitVec 64) #x0000000000000000)
(model-add temp190_10 () (_ BitVec 64) #x0000000000000001)
(model-add var6883126 () (_ BitVec 64) #x0000000000000001)
(model-add var7082204 () (_ BitVec 64) #x0000000000000001)
(model-add temp190_12 () (_ BitVec 64) #x0000000000000000)
(model-add temp190_11 () (_ BitVec 64) #x0000000000000000)
(model-add temp190_13 () (_ BitVec 64) #x0000000000000001)
(model-add var8198177 () (_ BitVec 64) #x0000000000000001)
(model-add temp190_14 () (_ BitVec 64) #x0000000000000001)
(model-add var8456171
           ()
           (_ BitVec 64)
           (concat ((_ extract 62 0) ARGNAME_input_NAMEEND_DIM) #b0))
(model-add temp190_16 () (_ BitVec 64) #x0000000000000000)
(model-add temp190_15 () (_ BitVec 64) #x0000000000000000)
(model-add var8522615
           ()
           (_ BitVec 64)
           (concat ((_ extract 62 0) ARGNAME_input_NAMEEND_DIM) #b0))
(model-add temp190_17 () (_ BitVec 64) #x0000000000000005)
(model-add var8589064 () (_ BitVec 64) #x0000000000000005)
(model-add var8654609
           ()
           (_ BitVec 64)
           (concat ((_ extract 62 0) ARGNAME_input_NAMEEND_DIM) #b0))
(model-add temp190_19 () (_ BitVec 64) #x0000000000000000)
(model-add temp190_18 () (_ BitVec 64) #x0000000000000000)
(model-add temp190_20 () (_ BitVec 64) #x0000000000000000)
(model-add var8851191 () (_ BitVec 64) #x0000000000000000)
(model-add temp190_21 () (_ BitVec 64) #x0000000000000000)
(model-add var8456232 () (_ BitVec 64) #x0000000000000000)
(model-add temp190_22 () (_ BitVec 64) #x0000000000000001)
(model-add var8456274 () (_ BitVec 64) #x0000000000000001)
(model-add temp190_24 () (_ BitVec 64) #x0000000000000000)
(model-add temp190_23 () (_ BitVec 64) #x0000000000000000)
(model-add temp190_25 () (_ BitVec 64) #x0000000000000001)
(model-add var9440248 () (_ BitVec 64) #x0000000000000001)
(model-add temp190_26 () (_ BitVec 64) #x0000000000000000)
(model-add var9440286 () (_ BitVec 64) #x0000000000000000)
(model-add temp190_27 () (_ BitVec 64) #x0000000000000000)





